120
150
54
52
48
44
58
57
52
44
41
54
50
50
58
46
48
48
60
48
54
41
50
55
47
52
51
45
52
52
52
47
50
46
42
46
45
59
56
54
44
54
52
46
59
45
40
55
52
59
46
57
48
54
44
40
44
52
54
45
55
54
44
43
52
51
47
50
44
56
57
47
56
42
52
52
57
60
49
46
56
52
44
51
55
48
57
57
41
52
50
55
45
45
48
54
48
42
41
41
54
50
46
41
54
53
54
52
49
47
56
47
56
40
54
54
47
44
43
48
48
54
